302 10
2 2 2 2 2 2 2 2 2 2
0  0 0 0 0 0 0 0 0 0 0  30 2 12 22 32 42 52 62 72 82 92 102 112 122 132 142 152 162 172 182 192 202 212 222 232 242 252 262 272 282 292
66  0 0 0 0 0 0 0 0 0 1  1 3
91  0 0 0 0 0 1 0 0 0 0  1 4
87  0 0 0 0 1 0 0 0 0 0  1 5
94  0 0 1 0 0 0 0 0 0 0  1 6
21  0 0 0 0 0 0 0 1 0 0  1 7
92  0 0 0 1 0 0 0 0 0 0  1 8
7  0 1 0 0 0 0 0 0 0 0  1 9
12  1 0 0 0 0 0 0 0 0 0  1 10
11  0 0 0 0 0 0 0 0 1 0  1 11
19  0 0 0 0 0 0 1 0 0 0  1 302
13  0 0 0 1 0 0 0 0 0 0  1 13
20  0 0 1 0 0 0 0 0 0 0  1 14
7  0 0 0 0 1 0 0 0 0 0  1 15
14  0 1 0 0 0 0 0 0 0 0  1 16
66  0 0 0 0 0 0 0 0 0 1  1 17
75  1 0 0 0 0 0 0 0 0 0  1 18
77  0 0 0 0 0 0 1 0 0 0  1 19
16  0 0 0 0 0 1 0 0 0 0  1 20
95  0 0 0 0 0 0 0 1 0 0  1 21
7  0 0 0 0 0 0 0 0 1 0  1 302
77  0 0 0 0 0 0 0 0 1 0  1 23
20  0 0 0 0 0 0 0 1 0 0  1 24
34  0 0 1 0 0 0 0 0 0 0  1 25
15  1 0 0 0 0 0 0 0 0 0  1 26
88  0 0 0 0 0 0 0 0 0 1  1 27
89  0 0 0 0 0 1 0 0 0 0  1 28
53  0 0 0 0 0 0 1 0 0 0  1 29
6  0 0 0 1 0 0 0 0 0 0  1 30
45  0 1 0 0 0 0 0 0 0 0  1 31
76  0 0 0 0 1 0 0 0 0 0  1 302
27  0 0 0 1 0 0 0 0 0 0  1 33
74  0 0 1 0 0 0 0 0 0 0  1 34
88  0 0 0 0 0 0 1 0 0 0  1 35
62  0 0 0 0 1 0 0 0 0 0  1 36
52  0 0 0 0 0 0 0 1 0 0  1 37
69  0 0 0 0 0 0 0 0 1 0  1 38
9  0 0 0 0 0 1 0 0 0 0  1 39
98  0 0 0 0 0 0 0 0 0 1  1 40
52  1 0 0 0 0 0 0 0 0 0  1 41
88  0 1 0 0 0 0 0 0 0 0  1 302
88  0 0 0 0 1 0 0 0 0 0  1 43
15  0 0 0 0 0 0 1 0 0 0  1 44
52  0 1 0 0 0 0 0 0 0 0  1 45
61  0 0 1 0 0 0 0 0 0 0  1 46
54  0 0 0 0 0 0 0 1 0 0  1 47
62  1 0 0 0 0 0 0 0 0 0  1 48
59  0 0 0 0 0 0 0 0 1 0  1 49
9  0 0 0 0 0 1 0 0 0 0  1 50
90  0 0 0 1 0 0 0 0 0 0  1 51
5  0 0 0 0 0 0 0 0 0 1  1 302
71  0 0 0 0 0 0 1 0 0 0  1 53
41  1 0 0 0 0 0 0 0 0 0  1 54
38  0 0 0 0 1 0 0 0 0 0  1 55
53  0 0 0 1 0 0 0 0 0 0  1 56
91  0 0 0 0 0 0 0 1 0 0  1 57
68  0 0 0 0 0 0 0 0 1 0  1 58
50  0 1 0 0 0 0 0 0 0 0  1 59
78  0 0 0 0 0 1 0 0 0 0  1 60
23  0 0 1 0 0 0 0 0 0 0  1 61
72  0 0 0 0 0 0 0 0 0 1  1 302
95  0 0 0 1 0 0 0 0 0 0  1 63
36  0 0 0 0 0 0 0 0 0 1  1 64
66  0 0 0 0 0 0 1 0 0 0  1 65
52  0 0 0 0 0 1 0 0 0 0  1 66
45  1 0 0 0 0 0 0 0 0 0  1 67
30  0 0 0 0 0 0 0 0 1 0  1 68
23  0 0 0 0 1 0 0 0 0 0  1 69
25  0 0 1 0 0 0 0 0 0 0  1 70
17  0 0 0 0 0 0 0 1 0 0  1 71
6  0 1 0 0 0 0 0 0 0 0  1 302
65  0 0 0 0 1 0 0 0 0 0  1 73
8  0 1 0 0 0 0 0 0 0 0  1 74
85  0 0 0 0 0 0 0 0 1 0  1 75
71  1 0 0 0 0 0 0 0 0 0  1 76
65  0 0 0 0 0 0 0 1 0 0  1 77
28  0 0 0 0 0 0 1 0 0 0  1 78
88  0 0 0 0 0 1 0 0 0 0  1 79
76  0 0 0 1 0 0 0 0 0 0  1 80
27  0 0 0 0 0 0 0 0 0 1  1 81
95  0 0 1 0 0 0 0 0 0 0  1 302
37  0 0 0 0 0 0 0 0 0 1  1 83
37  0 1 0 0 0 0 0 0 0 0  1 84
28  0 0 0 0 1 0 0 0 0 0  1 85
51  0 0 0 1 0 0 0 0 0 0  1 86
86  0 0 0 0 0 0 0 0 1 0  1 87
9  0 0 1 0 0 0 0 0 0 0  1 88
55  0 0 0 0 0 0 1 0 0 0  1 89
73  1 0 0 0 0 0 0 0 0 0  1 90
51  0 0 0 0 0 0 0 1 0 0  1 91
90  0 0 0 0 0 1 0 0 0 0  1 302
39  0 0 0 1 0 0 0 0 0 0  1 93
15  0 0 1 0 0 0 0 0 0 0  1 94
83  0 0 0 0 0 0 1 0 0 0  1 95
44  0 0 0 0 0 0 0 0 0 1  1 96
53  0 0 0 0 0 0 0 1 0 0  1 97
16  1 0 0 0 0 0 0 0 0 0  1 98
46  0 0 0 0 1 0 0 0 0 0  1 99
24  0 0 0 0 0 1 0 0 0 0  1 100
25  0 1 0 0 0 0 0 0 0 0  1 101
82  0 0 0 0 0 0 0 0 1 0  1 302
72  0 1 0 0 0 0 0 0 0 0  1 103
48  0 0 0 0 1 0 0 0 0 0  1 104
87  1 0 0 0 0 0 0 0 0 0  1 105
66  0 0 1 0 0 0 0 0 0 0  1 106
5  0 0 0 0 0 0 0 0 0 1  1 107
54  0 0 0 0 0 0 1 0 0 0  1 108
39  0 0 0 0 0 0 0 1 0 0  1 109
35  0 0 0 0 0 0 0 0 1 0  1 110
95  0 0 0 0 0 1 0 0 0 0  1 111
60  0 0 0 1 0 0 0 0 0 0  1 302
46  0 1 0 0 0 0 0 0 0 0  1 113
20  0 0 0 1 0 0 0 0 0 0  1 114
97  1 0 0 0 0 0 0 0 0 0  1 115
21  0 0 1 0 0 0 0 0 0 0  1 116
46  0 0 0 0 0 0 0 0 0 1  1 117
37  0 0 0 0 0 0 0 1 0 0  1 118
19  0 0 0 0 0 0 0 0 1 0  1 119
59  0 0 0 0 1 0 0 0 0 0  1 120
34  0 0 0 0 0 0 1 0 0 0  1 121
55  0 0 0 0 0 1 0 0 0 0  1 302
23  0 0 0 0 0 1 0 0 0 0  1 123
25  0 0 0 1 0 0 0 0 0 0  1 124
78  0 0 0 0 0 0 1 0 0 0  1 125
24  0 1 0 0 0 0 0 0 0 0  1 126
28  1 0 0 0 0 0 0 0 0 0  1 127
83  0 0 0 0 0 0 0 1 0 0  1 128
28  0 0 0 0 0 0 0 0 1 0  1 129
5  0 0 0 0 0 0 0 0 0 1  1 130
73  0 0 1 0 0 0 0 0 0 0  1 131
45  0 0 0 0 1 0 0 0 0 0  1 302
37  0 1 0 0 0 0 0 0 0 0  1 133
53  1 0 0 0 0 0 0 0 0 0  1 134
87  0 0 0 0 0 0 0 1 0 0  1 135
38  0 0 0 0 1 0 0 0 0 0  1 136
71  0 0 0 1 0 0 0 0 0 0  1 137
29  0 0 0 0 0 1 0 0 0 0  1 138
12  0 0 0 0 0 0 0 0 0 1  1 139
33  0 0 0 0 0 0 0 0 1 0  1 140
55  0 0 0 0 0 0 1 0 0 0  1 141
12  0 0 1 0 0 0 0 0 0 0  1 302
90  0 0 0 0 1 0 0 0 0 0  1 143
17  0 0 0 0 0 0 0 0 1 0  1 144
49  0 0 1 0 0 0 0 0 0 0  1 145
83  0 0 0 1 0 0 0 0 0 0  1 146
40  0 1 0 0 0 0 0 0 0 0  1 147
23  0 0 0 0 0 0 1 0 0 0  1 148
65  0 0 0 0 0 0 0 1 0 0  1 149
27  0 0 0 0 0 0 0 0 0 1  1 150
7  0 0 0 0 0 1 0 0 0 0  1 151
48  1 0 0 0 0 0 0 0 0 0  1 302
66  0 0 0 0 0 0 0 0 0 1  1 153
91  0 0 0 0 0 1 0 0 0 0  1 154
87  0 0 0 0 1 0 0 0 0 0  1 155
94  0 0 1 0 0 0 0 0 0 0  1 156
21  0 0 0 0 0 0 0 1 0 0  1 157
92  0 0 0 1 0 0 0 0 0 0  1 158
7  0 1 0 0 0 0 0 0 0 0  1 159
12  1 0 0 0 0 0 0 0 0 0  1 160
11  0 0 0 0 0 0 0 0 1 0  1 161
19  0 0 0 0 0 0 1 0 0 0  1 302
13  0 0 0 1 0 0 0 0 0 0  1 163
20  0 0 1 0 0 0 0 0 0 0  1 164
7  0 0 0 0 1 0 0 0 0 0  1 165
14  0 1 0 0 0 0 0 0 0 0  1 166
66  0 0 0 0 0 0 0 0 0 1  1 167
75  1 0 0 0 0 0 0 0 0 0  1 168
77  0 0 0 0 0 0 1 0 0 0  1 169
16  0 0 0 0 0 1 0 0 0 0  1 170
95  0 0 0 0 0 0 0 1 0 0  1 171
7  0 0 0 0 0 0 0 0 1 0  1 302
77  0 0 0 0 0 0 0 0 1 0  1 173
20  0 0 0 0 0 0 0 1 0 0  1 174
34  0 0 1 0 0 0 0 0 0 0  1 175
15  1 0 0 0 0 0 0 0 0 0  1 176
88  0 0 0 0 0 0 0 0 0 1  1 177
89  0 0 0 0 0 1 0 0 0 0  1 178
53  0 0 0 0 0 0 1 0 0 0  1 179
6  0 0 0 1 0 0 0 0 0 0  1 180
45  0 1 0 0 0 0 0 0 0 0  1 181
76  0 0 0 0 1 0 0 0 0 0  1 302
27  0 0 0 1 0 0 0 0 0 0  1 183
74  0 0 1 0 0 0 0 0 0 0  1 184
88  0 0 0 0 0 0 1 0 0 0  1 185
62  0 0 0 0 1 0 0 0 0 0  1 186
52  0 0 0 0 0 0 0 1 0 0  1 187
69  0 0 0 0 0 0 0 0 1 0  1 188
9  0 0 0 0 0 1 0 0 0 0  1 189
98  0 0 0 0 0 0 0 0 0 1  1 190
52  1 0 0 0 0 0 0 0 0 0  1 191
88  0 1 0 0 0 0 0 0 0 0  1 302
88  0 0 0 0 1 0 0 0 0 0  1 193
15  0 0 0 0 0 0 1 0 0 0  1 194
52  0 1 0 0 0 0 0 0 0 0  1 195
61  0 0 1 0 0 0 0 0 0 0  1 196
54  0 0 0 0 0 0 0 1 0 0  1 197
62  1 0 0 0 0 0 0 0 0 0  1 198
59  0 0 0 0 0 0 0 0 1 0  1 199
9  0 0 0 0 0 1 0 0 0 0  1 200
90  0 0 0 1 0 0 0 0 0 0  1 201
5  0 0 0 0 0 0 0 0 0 1  1 302
71  0 0 0 0 0 0 1 0 0 0  1 203
41  1 0 0 0 0 0 0 0 0 0  1 204
38  0 0 0 0 1 0 0 0 0 0  1 205
53  0 0 0 1 0 0 0 0 0 0  1 206
91  0 0 0 0 0 0 0 1 0 0  1 207
68  0 0 0 0 0 0 0 0 1 0  1 208
50  0 1 0 0 0 0 0 0 0 0  1 209
78  0 0 0 0 0 1 0 0 0 0  1 210
23  0 0 1 0 0 0 0 0 0 0  1 211
72  0 0 0 0 0 0 0 0 0 1  1 302
95  0 0 0 1 0 0 0 0 0 0  1 213
36  0 0 0 0 0 0 0 0 0 1  1 214
66  0 0 0 0 0 0 1 0 0 0  1 215
52  0 0 0 0 0 1 0 0 0 0  1 216
45  1 0 0 0 0 0 0 0 0 0  1 217
30  0 0 0 0 0 0 0 0 1 0  1 218
23  0 0 0 0 1 0 0 0 0 0  1 219
25  0 0 1 0 0 0 0 0 0 0  1 220
17  0 0 0 0 0 0 0 1 0 0  1 221
6  0 1 0 0 0 0 0 0 0 0  1 302
65  0 0 0 0 1 0 0 0 0 0  1 223
8  0 1 0 0 0 0 0 0 0 0  1 224
85  0 0 0 0 0 0 0 0 1 0  1 225
71  1 0 0 0 0 0 0 0 0 0  1 226
65  0 0 0 0 0 0 0 1 0 0  1 227
28  0 0 0 0 0 0 1 0 0 0  1 228
88  0 0 0 0 0 1 0 0 0 0  1 229
76  0 0 0 1 0 0 0 0 0 0  1 230
27  0 0 0 0 0 0 0 0 0 1  1 231
95  0 0 1 0 0 0 0 0 0 0  1 302
37  0 0 0 0 0 0 0 0 0 1  1 233
37  0 1 0 0 0 0 0 0 0 0  1 234
28  0 0 0 0 1 0 0 0 0 0  1 235
51  0 0 0 1 0 0 0 0 0 0  1 236
86  0 0 0 0 0 0 0 0 1 0  1 237
9  0 0 1 0 0 0 0 0 0 0  1 238
55  0 0 0 0 0 0 1 0 0 0  1 239
73  1 0 0 0 0 0 0 0 0 0  1 240
51  0 0 0 0 0 0 0 1 0 0  1 241
90  0 0 0 0 0 1 0 0 0 0  1 302
39  0 0 0 1 0 0 0 0 0 0  1 243
15  0 0 1 0 0 0 0 0 0 0  1 244
83  0 0 0 0 0 0 1 0 0 0  1 245
44  0 0 0 0 0 0 0 0 0 1  1 246
53  0 0 0 0 0 0 0 1 0 0  1 247
16  1 0 0 0 0 0 0 0 0 0  1 248
46  0 0 0 0 1 0 0 0 0 0  1 249
24  0 0 0 0 0 1 0 0 0 0  1 250
25  0 1 0 0 0 0 0 0 0 0  1 251
82  0 0 0 0 0 0 0 0 1 0  1 302
72  0 1 0 0 0 0 0 0 0 0  1 253
48  0 0 0 0 1 0 0 0 0 0  1 254
87  1 0 0 0 0 0 0 0 0 0  1 255
66  0 0 1 0 0 0 0 0 0 0  1 256
5  0 0 0 0 0 0 0 0 0 1  1 257
54  0 0 0 0 0 0 1 0 0 0  1 258
39  0 0 0 0 0 0 0 1 0 0  1 259
35  0 0 0 0 0 0 0 0 1 0  1 260
95  0 0 0 0 0 1 0 0 0 0  1 261
60  0 0 0 1 0 0 0 0 0 0  1 302
46  0 1 0 0 0 0 0 0 0 0  1 263
20  0 0 0 1 0 0 0 0 0 0  1 264
97  1 0 0 0 0 0 0 0 0 0  1 265
21  0 0 1 0 0 0 0 0 0 0  1 266
46  0 0 0 0 0 0 0 0 0 1  1 267
37  0 0 0 0 0 0 0 1 0 0  1 268
19  0 0 0 0 0 0 0 0 1 0  1 269
59  0 0 0 0 1 0 0 0 0 0  1 270
34  0 0 0 0 0 0 1 0 0 0  1 271
55  0 0 0 0 0 1 0 0 0 0  1 302
23  0 0 0 0 0 1 0 0 0 0  1 273
25  0 0 0 1 0 0 0 0 0 0  1 274
78  0 0 0 0 0 0 1 0 0 0  1 275
24  0 1 0 0 0 0 0 0 0 0  1 276
28  1 0 0 0 0 0 0 0 0 0  1 277
83  0 0 0 0 0 0 0 1 0 0  1 278
28  0 0 0 0 0 0 0 0 1 0  1 279
5  0 0 0 0 0 0 0 0 0 1  1 280
73  0 0 1 0 0 0 0 0 0 0  1 281
45  0 0 0 0 1 0 0 0 0 0  1 302
37  0 1 0 0 0 0 0 0 0 0  1 283
53  1 0 0 0 0 0 0 0 0 0  1 284
87  0 0 0 0 0 0 0 1 0 0  1 285
38  0 0 0 0 1 0 0 0 0 0  1 286
71  0 0 0 1 0 0 0 0 0 0  1 287
29  0 0 0 0 0 1 0 0 0 0  1 288
12  0 0 0 0 0 0 0 0 0 1  1 289
33  0 0 0 0 0 0 0 0 1 0  1 290
55  0 0 0 0 0 0 1 0 0 0  1 291
12  0 0 1 0 0 0 0 0 0 0  1 302
90  0 0 0 0 1 0 0 0 0 0  1 293
17  0 0 0 0 0 0 0 0 1 0  1 294
49  0 0 1 0 0 0 0 0 0 0  1 295
83  0 0 0 1 0 0 0 0 0 0  1 296
40  0 1 0 0 0 0 0 0 0 0  1 297
23  0 0 0 0 0 0 1 0 0 0  1 298
65  0 0 0 0 0 0 0 1 0 0  1 299
27  0 0 0 0 0 0 0 0 0 1  1 300
7  0 0 0 0 0 1 0 0 0 0  1 301
48  1 0 0 0 0 0 0 0 0 0  1 302
0  0 0 0 0 0 0 0 0 0 0  0
